(declare-const X String)
; /filename=[^\n]*\x2epkp/i
(assert (str.in_re X (re.++ (str.to_re "/filename=") (re.* (re.comp (str.to_re "\u{a}"))) (str.to_re ".pkp/i\u{a}"))))
; body=\x2521\x2521\x2521Optix\s+Host\x3a
(assert (not (str.in_re X (re.++ (str.to_re "body=%21%21%21Optix\u{13}") (re.+ (re.union (str.to_re " ") (str.to_re "\u{9}") (str.to_re "\u{a}") (str.to_re "\u{c}") (str.to_re "\u{d}"))) (str.to_re "Host:\u{a}")))))
(check-sat)

(exit)
